NAME : ClusterId_163 
COMMENT : (Gillet and Johnson) 
TYPE : CVRP 
DIMENSION : 31 
EDGE_WEIGHT_TYPE : EUC_2D 
CAPACITY : 60 
NODE_COORD_SECTION 
163 110 110 
120 160 160 
119 160 110 
111 150 110 
112 150 150 
102 140 80 
104 140 140 
103 140 110 
94 130 90 
96 130 130 
95 130 110 
108 110 70 
86 120 100 
88 120 120 
87 120 110 
100 110 80 
92 110 90 
93 110 130 
84 110 100 
85 110 120 
101 110 140 
117 110 160 
105 70 70 
109 110 150 
81 100 100 
83 100 120 
97 80 80 
82 100 110 
89 90 90 
91 90 130 
90 90 110 
DEMAND_SECTION 
163 2590
120 1
119 1
111 2
112 2
102 4
104 4
103 4
94 8
96 8
95 8
108 2
86 12
88 12
87 12
100 4
92 8
93 8
84 12
85 12
101 4
117 1
105 2
109 2
81 12
83 12
97 4
82 12
89 8
91 8
90 8
DEPOT_SECTION 
163
 -1
EOF